\ENCODING=ISO-8859-1
\Problem name: IloCplex

Minimize
 obj: x25 + x26 + x27 + x28
Subject To
 c1:  - x1 + x25 >= 0
 c2:  - x2 + x25 >= 0
 c3:  - x3 + x25 >= 0
 c4:  - x4 + x25 >= 0
 c5:  - x5 + x25 >= 0
 c6:  - x6 + x25 >= 0
 c7:  - x7 + x25 >= 0
 c8:  x25 >= 0
 c9:  x25 >= 0
 c10: x25 >= 0
 c11: x25 >= 0
 c12: - x12 + x25 >= 0
 c13: - x1 - x2 - x3 - x4 - x5 - x6 - x7 - x12 + x25 <= 0
 c14: - x13 + x26 >= 0
 c15: - x14 + x26 >= 0
 c16: - x15 + x26 >= 0
 c17: - x16 + x26 >= 0
 c18: - x17 + x26 >= 0
 c19: - x18 + x26 >= 0
 c20: - x19 + x26 >= 0
 c21: x26 >= 0
 c22: x26 >= 0
 c23: x26 >= 0
 c24: x26 >= 0
 c25: - x24 + x26 >= 0
 c26: - x13 - x14 - x15 - x16 - x17 - x18 - x19 - x24 + x26 <= 0
 c27: x27 >= 0
 c28: x27 >= 0
 c29: x27 >= 0
 c30: x27 >= 0
 c31: x27 >= 0
 c32: x27 >= 0
 c33: x27 >= 0
 c34: - x8 + x27 >= 0
 c35: - x9 + x27 >= 0
 c36: - x10 + x27 >= 0
 c37: - x11 + x27 >= 0
 c38: - x12 + x27 >= 0
 c39: - x8 - x9 - x10 - x11 - x12 + x27 <= 0
 c40: x28 >= 0
 c41: x28 >= 0
 c42: x28 >= 0
 c43: x28 >= 0
 c44: x28 >= 0
 c45: x28 >= 0
 c46: x28 >= 0
 c47: - x20 + x28 >= 0
 c48: - x21 + x28 >= 0
 c49: - x22 + x28 >= 0
 c50: - x23 + x28 >= 0
 c51: - x24 + x28 >= 0
 c52: - x20 - x21 - x22 - x23 - x24 + x28 <= 0
 c53: 10 x25 + 10 x27 <= 30
 c54: 10 x26 + 10 x28 <= 30
 c55: x1 + x13  = 1
 c56: x2 + x14  = 1
 c57: x3 + x15  = 1
 c58: x4 + x16  = 1
 c59: x5 + x17  = 1
 c60: x6 + x18  = 1
 c61: x7 + x19  = 1
 c62: x8 + x20  = 1
 c63: x9 + x21  = 1
 c64: x10 + x22  = 1
 c65: x11 + x23  = 1
 c66: x12 + x24  = 1
 c67: x1 + x9 <= 1
 c68: x2 + x10 <= 1
 c69: x3 <= 1
 c70: x4 + x11 <= 1
 c71: x5 + x12 <= 1
 c72: x6 <= 1
 c73: x1 + x9 <= 1
 c74: x2 + x10 <= 1
 c75: x3 <= 1
 c76: x4 + x11 <= 1
 c77: x5 + x12 <= 1
 c78: x6 <= 1
 c79: x7 + x8 <= 1
 c80: x7 + x8 <= 1
 c81: <= 1
 c82: x13 + x21 <= 1
 c83: x14 + x22 <= 1
 c84: x15 <= 1
 c85: x16 + x23 <= 1
 c86: x17 + x24 <= 1
 c87: x18 <= 1
 c88: x13 + x21 <= 1
 c89: x14 + x22 <= 1
 c90: x15 <= 1
 c91: x16 + x23 <= 1
 c92: x17 + x24 <= 1
 c93: x18 <= 1
 c94: x19 + x20 <= 1
 c95: x19 + x20 <= 1
 c96: <= 1
Bounds
 0 <= x1 <= 1
 0 <= x2 <= 1
 0 <= x3 <= 1
 0 <= x4 <= 1
 0 <= x5 <= 1
 0 <= x6 <= 1
 0 <= x7 <= 1
 0 <= x8 <= 1
 0 <= x9 <= 1
 0 <= x10 <= 1
 0 <= x11 <= 1
 0 <= x12 <= 1
 0 <= x13 <= 1
 0 <= x14 <= 1
 0 <= x15 <= 1
 0 <= x16 <= 1
 0 <= x17 <= 1
 0 <= x18 <= 1
 0 <= x19 <= 1
 0 <= x20 <= 1
 0 <= x21 <= 1
 0 <= x22 <= 1
 0 <= x23 <= 1
 0 <= x24 <= 1
 0 <= x25 <= 1
 0 <= x26 <= 1
 0 <= x27 <= 1
 0 <= x28 <= 1
Binaries
 x1  x2  x3  x4  x5  x6  x7  x8  x9  x10  x11  x12  x13  x14  x15  x16  x17 
 x18  x19  x20  x21  x22  x23  x24  x25  x26  x27  x28 
End
